p4_symbolic/symbolic/expected/string_optional.txt
Finding packet for table MyIngress.optional_match and row -1
Cannot find solution!

Finding packet for table MyIngress.optional_match and row 0
	Dropped = 0
	standard_metadata.ingress_port = #b000000000
	standard_metadata.egress_spec = #b000000000

Finding packet for table MyIngress.optional_match and row 1
	Dropped = 0
	standard_metadata.ingress_port = #b000000010
	standard_metadata.egress_spec = #b000000001

Finding packet for table MyIngress.set_field_table and row -1
Cannot find solution!

Finding packet for table MyIngress.set_field_table and row 0
	Dropped = 0
	standard_metadata.ingress_port = #b000000000
	standard_metadata.egress_spec = #b000000000

Finding packet for table MyIngress.set_field_table and row 1
	Dropped = 0
	standard_metadata.ingress_port = #b000000001
	standard_metadata.egress_spec = #b000000001

Finding packet for table MyIngress.set_field_table and row 2
	Dropped = 0
	standard_metadata.ingress_port = #b000000010
	standard_metadata.egress_spec = #b000000001

Finding packet for table tbl_program92 and row -1
	Dropped = 0
	standard_metadata.ingress_port = #b000000010
	standard_metadata.egress_spec = #b000000001

